TIP.Original.Linear/tip2015_weird_nat_add3acc_comm23.smt2
(set-logic HORN)
(declare-datatypes ((Nat_243 0)) (((zero_33 ) (succ_33 (p_99 Nat_243)))))
(declare-fun diseqNat_243 (Nat_243 Nat_243) Bool)
(declare-fun p_100 (Nat_243 Nat_243) Bool)
(declare-fun iszero_33 (Nat_243) Bool)
(declare-fun issucc_33 (Nat_243) Bool)
(assert (forall ((x_21112 Nat_243))
	(p_100 x_21112 (succ_33 x_21112))))
(assert (iszero_33 zero_33))
(assert (forall ((x_21114 Nat_243))
	(issucc_33 (succ_33 x_21114))))
(assert (forall ((x_21115 Nat_243))
	(diseqNat_243 zero_33 (succ_33 x_21115))))
(assert (forall ((x_21116 Nat_243))
	(diseqNat_243 (succ_33 x_21116) zero_33)))
(assert (forall ((x_21117 Nat_243) (x_21118 Nat_243))
	(=> (diseqNat_243 x_21117 x_21118)
	    (diseqNat_243 (succ_33 x_21117) (succ_33 x_21118)))))
(declare-fun addacc_6 (Nat_243 Nat_243 Nat_243 Nat_243) Bool)
(assert (forall ((x_21103 Nat_243) (x_21100 Nat_243) (y_757 Nat_243) (z_764 Nat_243))
	(=> (addacc_6 x_21103 x_21100 (succ_33 y_757) z_764)
	    (addacc_6 x_21103 (succ_33 x_21100) y_757 z_764))))
(assert (forall ((x_21105 Nat_243) (x_21101 Nat_243) (z_764 Nat_243))
	(=> (addacc_6 x_21105 zero_33 x_21101 (succ_33 z_764))
	    (addacc_6 x_21105 zero_33 (succ_33 x_21101) z_764))))
(assert (forall ((x_21107 Nat_243))
	(addacc_6 x_21107 zero_33 zero_33 x_21107)))
(assert (forall ((x_21108 Nat_243) (x_21109 Nat_243) (x_21102 Nat_243) (y_758 Nat_243) (z_765 Nat_243))
	(=>	(and true
			(diseqNat_243 x_21108 x_21109)
			(addacc_6 x_21108 x_21102 y_758 z_765)
			(addacc_6 x_21109 x_21102 z_765 y_758))
		false)))
(check-sat)
